TYPE : Vertex Cover
DIMENSION: 32
EDGE_DATA_SECTION:
0 4
0 26
1 7
1 9
1 23
1 25
1 27
2 5
2 19
2 22
2 26
3 14
3 29
4 7
4 12
4 21
4 22
4 29
5 16
5 22
6 13
6 23
6 25
7 8
7 22
7 29
8 13
8 22
8 24
8 29
9 19
9 24
10 15
10 20
10 21
10 31
11 12
11 31
12 23
12 27
13 20
13 24
14 15
14 17
14 18
14 26
15 27
16 21
17 28
17 29
18 20
18 22
18 31
19 24
20 25
21 27
22 23
22 24
25 26
26 27
26 31
29 30
-1
VERTEX_DEGREE:
2.0 5.0 4.0 2.0 6.0 3.0 3.0 5.0 5.0 3.0 4.0 2.0 4.0 4.0 5.0 3.0 2.0 3.0 4.0 3.0 4.0 4.0 8.0 4.0 5.0 4.0 6.0 5.0 1.0 6.0 1.0 4.0
VERTEX_COVER:
1 4 5 6 8 12 14 15 17 19 20 21 22 24 26 29 31
EOF
